32	0

0	1	2
3	3	3	4	7
4	1	5
2	1	5
1	1	6
5	3	8	9	10
10	3	8	9	10
5	3	11	12	13
1	3	11	12	13
6	2	12	17
7	3	14	15	17
9	2	14	15
5	3	14	15	17
5	2	16	19
3	2	16	19
4	2	18	21
9	2	18	21
7	2	20	23
6	2	20	21
9	1	22
8	2	22	23
4	2	24	25
8	2	24	25
9	2	26	27
10	2	26	27
6	2	28	29
5	2	28	29
2	2	30	31
2	2	30	31
7	1	32
6	1	32
0	0
